p cnf 8 16
c weights 1.0 1.0 2.718281828459045 0.36787944117144233 2.718281828459045 0.36787944117144233 1.0 1.0 2.718281828459045 0.36787944117144233 1.0 1.0 2.718281828459045 0.36787944117144233 1.0 1.0
2 1 4 0
2 -1 -4 0
-2 1 -4 0
-2 -1 4 0
3 1 6 0
3 -1 -6 0
-3 1 -6 0
-3 -1 6 0
5 4 8 0
5 -4 -8 0
-5 4 -8 0
-5 -4 8 0
7 6 8 0
7 -6 -8 0
-7 6 -8 0
-7 -6 8 0
